p cnf 805 2666
c ind 667 676 652 653 670 729 774 801 658 659 0
c ind 780 656 660 661 662 664 668 671 707 793 0
c ind 648 800 803 672 673 708 769 781 792 655 0
c ind 716 731 750 713 788 790 776 782 787 802 0
c ind 763 785 789 654 722 723 739 740 736 761 0
c ind 770 726 756 779 784 791 773 767 797 657 0
c ind 758 772 783 701 719 720 721 728 759 711 0
c ind 794 663 717 730 768 777 778 786 798 666 0
c ind 674 732 741 795 796 649 695 705 734 760 0
c ind 775 715 675 745 683 725 737 746 749 771 0
c ind 727 764 733 752 669 738 753 762 799 724 0
c ind 748 754 755 744 743 751 765 766 665 687 0
c ind 742 647 681 682 685 684 700 706 646 757 0
c ind 645 694 650 702 644 651 704 747 703 679 0
c ind 677 678 680 699 735 693 718 690 697 698 0
c ind 686 689 688 692 691 696 709 710 714 712 0
c ind 1 0
c ret 579 580 581 582 583 584 585 586 587 588 0
c ret 589 590 591 592 593 594 595 596 597 598 0
c ret 599 600 601 602 603 604 605 606 607 608 0
c ret 609 610 611 612 613 614 615 616 617 618 0
c ret 619 620 621 622 623 624 625 626 627 628 0
c ret 629 630 631 632 633 634 635 636 637 638 0
c ret 639 640 641 642 643 0
2 -3 -104 -326 -452 0
-2 452 0
-2 3 0
-2 326 0
-2 104 0
3 -20 -643 0
3 4 -20 707 0
3 -4 -20 -707 0
-3 20 0
-3 -4 643 707 0
-3 4 643 -707 0
4 -5 -9 -16 -18 0
-4 18 0
-4 5 0
-4 16 0
-4 9 0
5 -6 -7 -8 0
-5 6 0
-5 7 0
-5 8 0
6 689 694 780 -781 0
-6 781 0
-6 -780 0
-6 -689 0
-6 -694 0
7 685 686 687 688 0
-7 -688 0
-7 -687 0
-7 -685 0
-7 -686 0
8 681 682 683 684 0
-8 -684 0
-8 -683 0
-8 -681 0
-8 -682 0
9 -10 -11 -12 -13 0
-9 13 0
-9 10 0
-9 12 0
-9 11 0
10 650 651 0
-10 -650 0
-10 -651 0
11 677 678 0
-11 -677 0
-11 -678 0
12 679 680 0
-12 -679 0
-12 -680 0
13 -14 -15 691 692 0
-13 -691 0
-13 15 0
-13 14 0
-13 -692 0
14 645 646 647 649 0
-14 -649 0
-14 -647 0
-14 -645 0
-14 -646 0
15 644 706 0
-15 -644 0
-15 -706 0
16 -17 -691 0
16 17 691 0
-16 -17 691 0
-16 17 -691 0
17 692 -693 0
-17 -692 0
-17 693 0
18 -19 -688 0
18 19 688 0
-18 -19 688 0
-18 19 -688 0
19 689 -690 0
-19 -689 0
-19 690 0
20 -21 -63 -78 -88 0
-20 88 0
-20 21 0
-20 78 0
-20 63 0
21 22 31 58 -59 0
-21 59 0
-21 -58 0
-21 -22 0
-21 -31 0
22 23 28 0
22 23 -26 -694 0
-22 -23 0
-22 -28 694 0
-22 26 -28 0
23 24 645 0
23 24 -580 0
23 24 -725 0
-23 -24 0
-23 580 -645 725 0
24 -25 -638 0
-24 638 0
-24 25 0
25 -709 710 712 714 0
-25 -714 0
-25 -712 0
-25 709 0
-25 -710 0
26 27 717 0
-26 -717 0
-26 -27 0
27 710 712 -714 -718 0
-27 -710 0
-27 718 0
-27 714 0
-27 -712 0
28 -29 726 0
28 -29 -645 -725 0
28 -29 645 725 0
-28 29 0
-28 645 -725 -726 0
-28 -645 725 -726 0
-24 29 30 -694 0
-24 29 30 717 0
24 -29 0
-29 -30 0
-29 694 -717 0
30 645 725 726 0
-30 -645 0
-30 -726 0
-30 -725 0
31 -32 -33 -34 -39 0
-31 39 0
-31 32 0
-31 34 0
-31 33 0
32 -783 -784 -785 -786 0
-32 786 0
-32 783 0
-32 785 0
-32 784 0
33 -742 -743 -744 -782 0
-33 782 0
-33 742 0
-33 744 0
-33 743 0
34 -35 -36 -37 -38 0
-34 38 0
-34 35 0
-34 37 0
-34 36 0
35 -792 -794 -795 -797 0
-35 797 0
-35 792 0
-35 795 0
-35 794 0
36 -788 -789 -790 -791 0
-36 791 0
-36 788 0
-36 790 0
-36 789 0
37 -605 -670 0
37 605 670 0
-37 605 -670 0
-37 -605 670 0
38 -798 -800 -801 -802 0
-38 802 0
-38 798 0
-38 801 0
-38 800 0
39 -40 -45 -50 -53 0
-39 53 0
-39 40 0
-39 50 0
-39 45 0
40 -41 -42 -43 -44 0
-40 44 0
-40 41 0
-40 43 0
-40 42 0
41 -752 -753 -754 -755 0
-41 755 0
-41 752 0
-41 754 0
-41 753 0
42 -640 -705 0
42 640 705 0
-42 640 -705 0
-42 -640 705 0
43 -621 -686 0
43 621 686 0
-43 621 -686 0
-43 -621 686 0
44 -593 -658 0
44 593 658 0
-44 593 -658 0
-44 -593 658 0
45 -46 -47 -48 -49 0
-45 49 0
-45 46 0
-45 48 0
-45 47 0
46 -629 -694 0
46 629 694 0
-46 629 -694 0
-46 -629 694 0
47 -622 -687 0
47 622 687 0
-47 622 -687 0
-47 -622 687 0
48 -637 -702 0
48 637 702 0
-48 637 -702 0
-48 -637 702 0
49 -611 -676 0
49 611 676 0
-49 611 -676 0
-49 -611 676 0
50 -51 52 642 707 0
50 -51 52 -642 -707 0
-50 -52 0
-50 -642 707 0
-50 51 0
-50 642 -707 0
51 -581 -646 0
51 581 646 0
-51 581 -646 0
-51 -581 646 0
52 632 -697 0
52 -632 697 0
-52 -632 -697 0
-52 632 697 0
53 -54 55 -56 -57 0
-53 57 0
-53 54 0
-53 56 0
-53 -55 0
54 -635 -700 0
54 635 700 0
-54 635 -700 0
-54 -635 700 0
55 639 -704 0
55 -639 704 0
-55 -639 -704 0
-55 639 704 0
56 -599 -664 0
56 599 664 0
-56 599 -664 0
-56 -599 664 0
57 -638 -703 0
57 638 703 0
-57 638 -703 0
-57 -638 703 0
27 47 58 -728 0
27 -47 58 728 -730 0
-47 -58 730 0
47 -58 728 0
-27 -58 0
-47 -58 -728 0
26 59 60 0
-24 59 60 0
-46 59 60 0
-59 -60 0
24 -26 46 -59 0
25 60 -61 62 720 0
-60 -720 0
-60 -62 0
-60 61 0
-25 -60 0
61 -638 -703 722 0
61 638 703 722 0
-61 -722 0
-61 -638 703 0
-61 638 -703 0
62 -709 710 -712 -714 0
-62 714 0
-62 709 0
-62 712 0
-62 -710 0
63 64 -65 74 0
63 -65 74 77 0
-63 65 0
-63 -74 0
-63 -64 -77 0
64 645 -725 0
-64 -645 0
-64 725 0
65 70 773 0
65 70 -702 0
65 66 70 0
-65 -70 0
-65 -66 702 -773 0
66 -67 -640 0
-66 640 0
-66 67 0
67 -68 -69 0
-67 68 0
-67 69 0
68 596 597 0
-68 -596 0
-68 -597 0
69 710 -712 714 -724 0
-69 712 0
-69 -714 0
-69 -710 0
-69 724 0
70 -71 -737 0
70 -73 737 0
70 -72 737 0
-70 71 -737 0
-70 72 73 737 0
71 633 634 698 699 0
71 633 -634 698 -699 0
-71 -698 0
-71 -634 699 0
-71 -633 0
-71 634 -699 0
72 634 698 -699 0
-72 699 0
-72 -698 0
-72 -634 0
73 633 -698 0
73 -633 698 0
-73 -633 -698 0
-73 633 698 0
74 -75 588 709 0
74 -75 -589 709 0
-74 75 0
-74 -709 0
-74 -588 589 0
75 587 -588 0
75 76 -587 588 0
-75 -587 -588 0
-75 -76 588 0
-75 587 588 0
76 -589 -590 0
-76 589 0
-76 590 0
24 77 580 0
-77 -580 0
-24 -77 0
78 -79 85 -638 0
78 -79 85 87 0
-78 79 0
-78 -85 0
-78 -87 638 0
79 81 -84 0
79 80 772 0
79 80 -84 0
79 81 772 0
-79 -80 -81 0
-79 84 -772 0
80 -747 757 -758 0
-80 747 0
-80 -757 0
-80 758 0
-16 81 -82 0
16 -81 0
-81 82 0
82 -83 -626 0
82 83 626 0
-82 -83 626 0
-82 83 -626 0
83 627 -628 0
-83 -627 0
-83 628 0
-25 84 -774 0
25 84 773 0
25 -84 -773 0
-25 -84 774 0
85 86 791 0
-85 -791 0
-85 -86 0
86 -633 634 0
86 -634 699 0
86 633 -698 0
86 -633 698 0
86 634 -699 0
-86 633 634 698 699 0
-86 633 -634 698 -699 0
-86 -633 -634 -698 -699 0
-42 87 -778 0
42 87 778 0
-42 -87 778 0
42 -87 -778 0
88 -89 99 101 -102 0
-88 102 0
-88 -101 0
-88 89 0
-88 -99 0
-25 89 -90 98 0
87 89 -90 98 0
-89 90 0
-89 -98 0
25 -87 -89 0
90 -91 -768 0
90 94 731 0
90 731 -768 0
90 -91 94 0
-90 91 -731 0
-90 -94 768 0
91 92 93 604 696 0
91 92 93 -604 -696 0
-91 -92 0
-91 -604 696 0
-91 -93 0
-91 604 -696 0
92 605 696 -697 0
92 604 -605 697 0
-92 -604 -605 0
-92 605 -696 0
-92 605 697 0
-92 -605 -697 0
93 730 732 0
-93 -730 0
-93 -732 0
-15 94 95 96 -97 0
-15 94 -95 -96 -97 0
15 94 95 96 97 0
15 94 -95 -96 97 0
15 -94 -97 0
-15 -94 97 0
-94 -95 96 0
-94 95 -96 0
95 612 -613 0
-95 -612 0
-95 613 0
96 677 -678 0
-96 -677 0
-96 678 0
97 579 641 0
-97 -579 0
-97 -641 0
27 51 98 -777 0
27 -51 98 777 778 0
-98 777 -778 0
-51 -98 -777 0
-27 -98 0
51 -98 777 0
62 99 -715 0
-43 99 100 -715 0
-99 715 0
43 -62 -99 0
-62 -99 -100 0
100 638 -639 0
-100 -638 0
-100 639 0
-62 101 -720 0
-25 101 -720 721 0
-101 720 0
62 -101 -721 0
25 62 -101 0
102 709 741 0
-75 102 -103 0
102 -103 709 0
-75 102 741 0
75 -102 -709 0
-102 103 -741 0
-44 103 -663 0
-56 103 -657 0
103 -657 -663 0
-44 -56 103 0
56 -103 663 0
44 -103 657 0
104 -105 -240 -280 -309 0
-104 309 0
-104 105 0
-104 280 0
-104 240 0
105 -106 -143 -166 -187 0
-105 187 0
-105 106 0
-105 166 0
-105 143 0
106 -107 -128 -132 -135 0
-106 135 0
-106 107 0
-106 132 0
-106 128 0
107 -108 -118 -123 -125 0
-107 125 0
-107 108 0
-107 123 0
-107 118 0
108 -109 114 -116 -117 0
-108 117 0
-108 109 0
-108 116 0
-108 -114 0
109 -110 -111 -112 -113 0
-109 113 0
-109 110 0
-109 112 0
-109 111 0
110 646 728 0
110 -730 779 0
110 728 779 0
110 646 -730 0
-110 -646 -779 0
-110 -728 730 0
111 730 -787 0
111 732 786 0
111 732 -787 0
111 730 786 0
-111 -730 -732 0
-111 -786 787 0
112 745 777 0
112 -746 778 0
112 -746 777 0
112 745 778 0
-112 -745 746 0
-112 -777 -778 0
113 637 -793 0
113 726 792 0
113 726 -793 0
113 637 792 0
-113 -637 -726 0
-113 -792 793 0
114 115 -607 -672 743 0
-114 672 0
-114 -115 0
-114 607 0
-114 -743 0
115 610 -675 0
115 -610 675 0
-115 -610 -675 0
-115 610 675 0
116 737 765 0
116 -623 734 0
116 734 765 0
116 -623 737 0
-116 -734 -737 0
-116 623 -765 0
117 638 -728 0
117 722 727 0
117 722 -728 0
117 638 727 0
-117 -638 -722 0
-117 -727 728 0
118 -119 -120 -121 -122 0
-118 122 0
-118 119 0
-118 121 0
-118 120 0
119 -741 798 0
119 738 -799 0
119 738 798 0
119 -741 -799 0
-119 -738 741 0
-119 -798 799 0
120 -591 770 0
120 600 711 0
120 711 770 0
120 -591 600 0
-120 -600 -770 0
-120 591 -711 0
121 -587 -764 0
121 724 762 0
121 -587 762 0
121 724 -764 0
-121 587 -724 0
-121 -762 764 0
122 721 766 0
122 -688 703 0
122 703 766 0
122 -688 721 0
-122 -703 -721 0
-122 688 -766 0
123 -124 772 775 0
123 -124 -775 -777 0
-123 124 0
-123 -775 777 0
-123 -772 775 0
124 -691 -796 0
124 740 795 0
124 -691 795 0
124 740 -796 0
-124 691 -740 0
-124 -795 796 0
125 -126 127 718 0
125 -126 127 587 0
-125 126 0
-125 -127 0
-125 -587 -718 0
126 -626 -747 0
126 739 746 0
126 -626 746 0
126 739 -747 0
-126 626 -739 0
-126 -746 747 0
127 -751 757 0
-127 751 0
-127 -757 0
-69 128 129 0
128 131 -736 0
-69 128 -736 0
128 129 131 0
69 -128 -131 0
-128 -129 736 0
129 130 -610 0
129 130 611 0
-129 -130 0
-129 610 -611 0
130 633 -634 0
-130 -633 0
-130 634 0
131 -635 700 733 0
-131 635 0
-131 -733 0
-131 -700 0
-69 132 633 0
132 133 134 0
-69 132 133 0
132 134 633 0
69 -132 -134 0
-132 -133 -633 0
133 600 746 -747 0
-133 747 0
-133 -746 0
-133 -600 0
134 -637 702 773 0
-134 637 0
-134 -773 0
-134 -702 0
135 136 137 -139 0
135 137 -139 -725 0
-135 139 0
-135 -137 0
-135 -136 725 0
136 719 -720 0
136 719 -723 0
-136 -719 0
-136 720 723 0
137 -138 632 697 776 0
-137 138 0
-137 -776 0
-137 -632 0
-137 -697 0
138 631 696 0
-138 -631 0
-138 -696 0
139 141 711 0
139 -140 141 0
139 141 590 0
-139 -141 0
-139 140 -590 -711 0
140 587 588 589 0
-140 -587 0
-140 -589 0
-140 -588 0
141 -142 636 -669 701 0
-141 669 0
-141 -701 0
-141 -636 0
-141 142 0
142 -604 752 0
-142 604 0
-142 -752 0
143 -144 -149 -155 -160 0
-143 160 0
-143 144 0
-143 155 0
-143 149 0
144 -145 148 748 0
144 -145 -147 148 0
-144 145 0
-144 -148 0
-144 147 -748 0
145 146 -665 0
145 146 -763 0
145 146 600 0
-145 -146 0
-145 -600 665 763 0
146 -769 -770 0
146 -769 771 0
-146 769 0
-146 770 -771 0
147 -735 -749 0
-147 735 0
-147 749 0
148 585 -650 -754 0
-148 754 0
-148 650 0
-148 -585 0
149 -150 152 -756 0
149 -150 152 154 0
-149 150 0
-149 -152 0
-149 -154 756 0
150 151 796 0
150 151 -696 0
150 151 631 0
-150 -151 0
-150 -631 696 -796 0
151 -628 693 -800 0
-151 628 0
-151 -693 0
-151 800 0
152 -153 588 713 0
-152 153 0
-152 -713 0
-152 -588 0
153 589 -591 0
-153 -589 0
-153 591 0
154 688 -689 0
-154 -688 0
-154 689 0
155 156 -158 739 0
155 156 157 -158 0
-155 158 0
-155 -156 0
-155 -157 -739 0
156 -759 -761 0
156 -759 760 0
-156 759 0
-156 -760 761 0
157 627 628 0
-157 -627 0
-157 -628 0
158 159 767 0
158 159 -768 -769 0
-158 -159 0
-158 -767 768 0
-158 -767 769 0
159 633 -634 699 737 0
-159 634 0
-159 -737 0
-159 -633 0
-159 -699 0
160 -161 165 692 0
160 -161 164 165 0
-160 161 0
-160 -165 0
-160 -164 -692 0
161 162 163 0
161 163 -697 0
161 163 -780 0
-161 -163 0
-161 -162 697 780 0
162 698 -699 0
-162 -698 0
-162 699 0
163 643 -802 0
163 -802 803 0
-163 802 0
-163 -643 -803 0
164 -691 740 0
-164 691 0
-164 -740 0
165 607 -672 -743 0
-165 743 0
-165 672 0
-165 -607 0
166 -167 -172 -177 -182 0
-166 182 0
-166 167 0
-166 177 0
-166 172 0
167 -168 171 -776 0
167 -168 170 171 0
-167 168 0
-167 -171 0
-167 -170 776 0
168 169 702 0
168 169 -637 0
168 169 -773 0
-168 -169 0
-168 637 -702 773 0
169 -614 679 -802 0
-169 614 0
-169 -679 0
-169 802 0
170 -631 -696 0
-170 631 0
-170 696 0
171 -764 -765 766 0
-171 764 0
-171 765 0
-171 -766 0
172 -173 176 799 0
172 -173 175 176 0
-172 173 0
-172 -176 0
-172 -175 -799 0
173 174 690 0
173 174 -766 0
173 174 688 0
-173 -174 0
-173 -688 -690 766 0
174 587 -588 -589 -712 0
-174 -587 0
-174 712 0
-174 589 0
-174 588 0
175 591 -656 0
-175 -591 0
-175 656 0
176 765 -766 -771 0
-176 771 0
-176 766 0
-176 -765 0
177 178 -179 181 0
177 -179 181 689 0
-177 179 0
-177 -181 0
-177 -178 -689 0
178 -688 766 0
-178 688 0
-178 -766 0
179 180 766 0
179 180 -689 0
179 180 -690 0
-179 -180 0
-179 689 690 -766 0
180 624 625 -765 0
-180 765 0
-180 -625 0
-180 -624 0
181 775 -776 -777 0
-181 777 0
-181 776 0
-181 -775 0
182 183 184 -185 0
182 184 -185 737 0
-182 185 0
-182 -184 0
-182 -183 -737 0
183 -633 -698 0
-183 633 0
-183 698 0
184 -604 -696 731 0
-184 604 0
-184 696 0
-184 -731 0
185 186 732 0
185 186 -686 0
185 186 582 0
-185 -186 0
-185 -582 686 -732 0
186 635 -700 733 0
-186 -635 0
-186 700 0
-186 -733 0
187 -188 -193 -200 -215 0
-187 215 0
-187 188 0
-187 200 0
-187 193 0
188 189 190 -191 0
188 190 -191 798 0
-188 191 0
-188 -190 0
-188 -189 -798 0
189 602 -667 0
189 -602 667 0
-189 -602 -667 0
-189 602 667 0
190 688 689 -756 0
190 -688 -689 -756 0
190 -688 -690 -756 0
-190 756 0
-190 688 -689 0
-190 -688 689 690 0
27 191 724 0
191 192 717 0
27 191 192 0
191 717 724 0
-27 -191 -717 0
-191 -192 -724 0
76 192 588 0
-192 -588 0
-76 -192 0
48 193 -194 198 0
193 -194 198 773 0
-193 194 0
-193 -198 0
-48 -193 -773 0
194 196 197 0
194 195 197 589 0
-194 -197 0
-194 -195 -196 0
-194 -196 -589 0
195 587 588 0
-195 -587 0
-195 -588 0
196 -710 -711 0
196 710 711 0
-196 710 -711 0
-196 -710 711 0
197 -643 707 -708 0
197 -643 -707 708 0
-197 643 0
-197 -707 -708 0
-197 707 708 0
198 -199 -592 -657 742 0
-198 199 0
-198 592 0
-198 657 0
-198 -742 0
199 598 663 0
-199 -598 0
-199 -663 0
200 -201 -205 -210 -213 0
-200 213 0
-200 201 0
-200 210 0
-200 205 0
201 202 203 0
201 203 -791 0
183 201 203 0
-201 -203 0
-183 -201 -202 791 0
202 634 699 0
-202 -634 0
-202 -699 0
203 -204 604 669 752 0
-203 204 0
-203 -752 0
-203 -604 0
-203 -669 0
204 -636 -701 0
204 636 701 0
-204 636 -701 0
-204 -636 701 0
205 206 208 0
205 -207 208 0
205 208 760 0
-205 -208 0
-205 -206 207 -760 0
206 614 -615 0
-206 -614 0
-206 615 0
207 679 -680 0
-207 -679 0
-207 680 0
208 -209 618 630 695 0
-208 209 0
-208 -695 0
-208 -618 0
-208 -630 0
209 683 755 0
-209 -683 0
-209 -755 0
210 212 -756 0
133 210 211 0
210 211 212 0
133 210 -756 0
-133 -210 -212 0
-210 -211 756 0
211 -688 689 690 0
-211 688 0
-211 -690 0
-211 -689 0
212 601 -634 0
212 -601 634 0
-212 -601 -634 0
-212 601 634 0
213 -794 0
213 -579 644 0
213 -214 0
213 579 -644 0
-213 214 579 644 794 0
-213 214 -579 -644 794 0
214 586 -651 0
214 -586 651 0
-214 -586 -651 0
-214 586 651 0
215 -216 -228 -231 -234 0
-215 234 0
-215 216 0
-215 231 0
-215 228 0
216 -217 -220 -223 -226 0
-216 226 0
-216 217 0
-216 223 0
-216 220 0
217 219 712 0
217 218 219 0
217 219 587 0
-217 -219 0
-217 -218 -587 -712 0
218 588 713 0
218 589 713 0
-218 -713 0
-218 -588 -589 0
219 -626 -628 739 0
219 -626 -627 739 0
-219 626 0
-219 -739 0
-219 627 628 0
195 220 221 0
220 221 -711 0
153 220 221 0
-220 -221 0
-153 -195 -220 711 0
221 -222 -781 0
-221 781 0
-221 222 0
222 696 -697 -698 0
222 696 -697 699 0
-222 -696 0
-222 697 0
-222 698 -699 0
223 -224 0
223 -225 732 0
223 708 732 0
-223 224 -732 0
-223 224 225 -708 0
224 -709 710 -712 714 0
-224 712 0
-224 -714 0
-224 709 0
-224 -710 0
225 715 716 0
-225 -715 0
-225 -716 0
131 226 708 0
-68 226 -227 0
-68 226 708 0
131 226 -227 0
-226 227 -708 0
68 -131 -226 0
227 717 -719 -727 -772 0
-227 -717 0
-227 772 0
-227 727 0
-227 719 0
228 229 230 0
228 -713 798 0
228 230 798 0
228 229 -713 0
-228 -229 -798 0
-228 -230 713 0
229 612 -677 0
229 -612 677 0
-229 -612 -677 0
-229 612 677 0
230 588 589 -590 0
-230 590 0
-230 -589 0
-230 -588 0
231 232 -712 0
-218 231 232 0
231 232 587 0
-231 -232 0
218 -231 -587 712 0
232 233 587 800 0
232 233 -652 800 0
-232 -233 0
-232 -800 0
-232 -587 652 0
233 -628 693 0
-233 628 0
-233 -693 0
234 -235 237 -803 0
234 -235 237 238 0
-234 235 0
-234 -237 0
-234 -238 803 0
62 235 236 0
235 675 716 0
235 236 716 0
62 235 675 0
-62 -235 -716 0
-235 -236 -675 0
236 762 763 -764 0
-236 764 0
-236 -763 0
-236 -762 0
237 735 -751 -756 0
237 -735 -751 756 0
-237 751 0
-237 -735 -756 0
-237 735 756 0
238 239 -587 0
238 239 652 0
-238 -239 0
-238 587 -652 0
239 -600 665 0
-239 600 0
-239 -665 0
240 -241 -255 -262 -271 0
-240 271 0
-240 241 0
-240 262 0
-240 255 0
241 -242 249 767 0
241 -242 249 -253 0
-241 242 0
-241 -249 0
-241 253 -767 0
242 243 -246 0
242 243 769 0
-242 -243 0
-242 246 -769 0
-147 243 -244 -585 748 0
-243 244 0
-243 585 0
147 -243 0
-243 -748 0
244 -245 -623 0
244 245 623 0
-244 -245 623 0
-244 245 -623 0
245 624 -625 0
-245 -624 0
-245 625 0
246 -247 -248 0
246 247 248 0
-246 247 -248 0
-246 -247 248 0
247 616 -617 0
-247 -616 0
-247 617 0
248 681 -682 0
-248 -681 0
-248 682 0
249 -250 759 -760 761 0
-249 760 0
-249 -761 0
-249 -759 0
-249 250 0
250 -251 -252 0
250 251 252 0
-250 251 -252 0
-250 -251 252 0
251 619 -620 0
-251 -619 0
-251 620 0
252 684 -685 0
-252 -684 0
-252 685 0
-12 253 -254 0
12 253 254 0
12 -253 -254 0
-12 -253 254 0
254 614 615 0
-254 -614 0
-254 -615 0
255 256 -258 803 0
255 256 -257 -258 0
-255 258 0
-255 -256 0
-255 257 -803 0
-25 256 -638 705 778 0
-25 256 -638 -705 -778 0
25 -256 0
-256 -705 778 0
-256 638 0
-256 705 -778 0
-238 257 643 0
-238 257 -802 0
-238 257 -614 0
238 -257 0
-257 614 -643 802 0
258 259 261 0
258 259 748 0
244 258 259 0
-258 -259 0
-244 -258 -261 -748 0
259 -260 -797 0
259 596 -661 -797 0
259 -596 661 -797 0
-259 797 0
-259 260 596 661 0
-259 260 -596 -661 0
260 615 -680 0
260 -615 680 0
-260 -615 -680 0
-260 615 680 0
261 585 -586 0
-261 -585 0
-261 586 0
262 -263 269 723 0
262 -263 269 -270 0
-262 263 0
-262 -269 0
-262 270 -723 0
263 264 -267 0
263 264 771 0
-263 -264 0
-263 267 -771 0
264 -265 266 795 -796 0
-264 -795 0
-264 -266 0
-264 265 0
-264 796 0
265 -641 -706 0
265 641 706 0
-265 641 -706 0
-265 -641 706 0
266 582 -647 0
266 -582 647 0
-266 -582 -647 0
-266 582 647 0
-10 267 -268 0
10 267 268 0
10 -267 -268 0
-10 -267 268 0
268 585 586 0
-268 -585 0
-268 -586 0
-267 269 766 771 0
-267 269 -765 771 0
267 -269 0
-269 -771 0
-269 765 -766 0
270 -638 -703 0
270 638 703 704 0
-270 638 -703 0
-270 -638 703 0
-270 703 -704 0
271 272 275 -277 0
271 272 -277 -788 0
-271 277 0
-271 -272 0
-271 -275 788 0
272 273 -761 0
-272 761 0
-272 -273 0
68 273 -274 0
68 273 602 -637 0
-68 -273 0
-273 274 -602 0
-273 274 637 0
274 -580 603 0
-274 580 0
-274 -603 0
275 -276 -626 -691 0
275 -276 626 691 0
-275 276 0
-275 -626 691 0
-275 626 -691 0
276 -617 -689 0
276 624 682 0
276 682 -689 0
276 -617 624 0
-276 -624 689 0
-276 617 -682 0
277 279 764 0
-11 277 -278 279 0
11 277 278 279 0
-277 -279 0
11 -277 -278 -764 0
-11 -277 278 -764 0
278 612 613 0
-278 -612 0
-278 -613 0
-253 279 767 -768 -769 0
-279 -767 0
253 -279 0
-279 769 0
-279 768 0
280 -281 -291 -301 -305 0
-280 305 0
-280 281 0
-280 301 0
-280 291 0
281 -282 286 289 0
281 -282 287 289 0
-281 282 0
-281 -289 0
-281 -286 -287 0
282 -285 -782 0
282 283 799 0
282 283 -285 0
282 -782 799 0
-282 285 -799 0
-282 -283 782 0
283 -284 -588 -653 0
283 -284 588 653 0
-283 284 0
-283 -588 653 0
-283 588 -653 0
284 -625 -655 0
284 590 690 0
284 590 -625 0
284 -655 690 0
-284 -590 655 0
-284 625 -690 0
285 591 620 685 0
285 -620 -656 -685 0
285 591 -620 -685 0
285 620 -656 685 0
-285 620 -685 0
-285 -620 685 0
-285 -591 656 0
286 -603 -668 0
-286 603 0
-286 668 0
287 -288 784 0
-287 -784 0
-287 288 0
288 -608 -654 0
288 589 673 0
288 589 -608 0
288 -654 673 0
-288 -589 654 0
-288 608 -673 0
289 -290 665 763 0
289 290 600 -763 0
-289 290 763 0
-289 -600 -763 0
-289 -665 763 0
-289 -290 -763 0
290 601 -666 0
-290 -601 0
-290 666 0
291 -292 -294 -296 -298 0
-291 298 0
-291 292 0
-291 296 0
-291 294 0
292 293 591 0
292 293 -590 0
292 293 -711 0
-292 -293 0
-292 590 -591 711 0
293 -587 652 -800 0
-293 587 0
-293 -652 0
-293 800 0
294 295 -720 0
294 295 -723 0
294 295 719 0
-294 -295 0
-294 -719 720 723 0
295 588 -589 590 713 0
-295 589 0
-295 -713 0
-295 -588 0
-295 -590 0
296 297 715 0
296 297 -686 0
100 296 297 0
-296 -297 0
-100 -296 686 -715 0
297 -762 -763 0
297 -665 -763 0
-297 763 0
-297 665 762 0
298 300 -637 0
298 300 -726 0
298 -299 300 0
-298 -300 0
-298 299 637 726 0
299 604 605 0
-299 -604 0
-299 -605 0
300 -643 -679 802 -803 0
-300 803 0
-300 643 0
-300 679 0
-300 -802 0
299 301 302 -303 0
301 302 -303 726 0
-301 303 0
-301 -302 0
-299 -301 -726 0
302 -598 -633 -749 0
-302 598 0
-302 633 0
-302 749 0
76 303 304 0
303 304 -724 0
303 304 587 0
-303 -304 0
-76 -303 -587 724 0
304 604 -669 -752 0
-304 752 0
-304 669 0
-304 -604 0
76 305 306 -307 0
305 306 -307 713 0
-305 307 0
-305 -306 0
-76 -305 -713 0
306 -587 -588 724 0
-306 587 0
-306 588 0
-306 -724 0
307 308 696 0
307 308 -631 0
307 308 796 0
-307 -308 0
-307 631 -696 -796 0
308 628 -693 -792 0
-308 792 0
-308 693 0
-308 -628 0
309 -310 317 319 -322 0
-309 322 0
-309 -319 0
-309 310 0
-309 -317 0
310 -311 315 -316 0
310 -311 315 -742 0
-310 311 0
-310 -315 0
-310 316 742 0
311 313 -730 0
311 313 -732 0
311 -312 313 0
-311 -313 0
-311 312 730 732 0
-62 -100 312 -629 0
-312 629 0
62 -312 0
100 -312 0
313 -314 -596 -661 0
-313 596 0
-313 661 0
-313 314 0
314 -615 -680 797 0
314 615 680 797 0
-314 -797 0
-314 -615 680 0
-314 615 -680 0
-287 315 603 668 0
287 -315 0
-315 -668 0
-315 -603 0
316 598 -663 0
316 -592 663 0
316 -598 657 0
316 592 -657 0
-316 592 598 657 663 0
-316 -592 -598 -657 -663 0
153 317 -318 0
317 -318 -587 -714 0
-317 318 0
-153 -317 714 0
-153 -317 587 0
-153 318 588 0
318 588 590 714 0
-318 -588 0
153 -318 -590 0
153 -318 -714 0
319 321 -588 0
-76 319 -320 321 0
-319 -321 0
-319 320 588 0
76 -319 588 0
320 587 712 0
-320 -587 0
-320 -712 0
321 -588 -589 713 0
321 -588 709 713 0
-321 588 0
-321 -713 0
-321 589 -709 0
322 323 324 0
322 323 613 0
322 323 678 0
-322 -323 0
-322 -324 -613 -678 0
-314 323 596 661 0
314 -323 0
-323 -661 0
-323 -596 0
324 -325 789 0
-324 -789 0
-324 325 0
325 625 627 0
325 -690 -692 0
325 625 -692 0
325 627 -690 0
-325 -625 690 0
-325 -627 692 0
326 -327 -348 -357 -361 0
-326 361 0
-326 327 0
-326 357 0
-326 348 0
327 -328 338 -339 -345 0
-327 345 0
-327 328 0
-327 339 0
-327 -338 0
328 -329 333 727 0
328 -329 333 -335 0
-328 329 0
-328 -333 0
-328 335 -727 0
329 -331 332 0
329 330 332 600 0
-329 -332 0
-329 -330 331 0
-329 331 -600 0
330 -665 770 0
330 -601 666 770 0
-330 -770 0
-330 665 -666 0
-330 601 665 0
331 -600 633 -746 0
331 -600 746 747 0
331 -600 -633 746 0
-331 600 0
-331 -633 -746 0
-331 633 746 -747 0
47 332 581 -779 0
-47 332 581 646 779 0
-332 -646 779 0
-47 -332 -779 0
-332 -581 0
47 -332 779 0
333 -334 -760 0
37 333 669 -760 0
-333 760 0
-333 334 -669 0
-37 -333 334 0
206 -207 334 0
-206 -334 0
207 -334 0
335 -336 -337 733 -734 0
-335 -733 0
-335 337 0
-335 336 0
-335 734 0
336 -751 -759 -762 -767 0
-336 767 0
-336 751 0
-336 762 0
-336 759 0
337 -738 745 748 750 0
-337 -750 0
-337 -748 0
-337 738 0
-337 -745 0
-37 -206 -207 338 760 0
-37 206 207 338 760 0
-338 -760 0
206 -207 -338 0
37 -338 0
-206 207 -338 0
339 340 344 -787 0
339 340 342 344 0
-339 -344 0
-339 -340 0
-339 -342 787 0
340 -341 605 697 731 0
340 -341 -605 -697 731 0
-340 -731 0
-340 605 -697 0
-340 341 0
-340 -605 697 0
341 604 696 0
-341 -604 0
-341 -696 0
342 343 -597 0
342 343 662 0
-342 -343 0
-342 597 -662 0
343 -601 666 0
-343 601 0
-343 -666 0
344 594 -659 -783 0
344 -594 659 -783 0
-344 783 0
-344 594 659 0
-344 -594 -659 0
345 346 -581 0
-46 345 346 729 0
46 345 346 -729 0
-345 -346 0
-46 -345 581 -729 0
46 -345 581 729 0
244 346 -347 585 0
244 346 -585 -748 0
-244 -346 0
-346 -585 748 0
-346 347 585 0
347 -735 748 -749 0
-347 735 0
-347 -748 0
-347 749 0
348 349 350 -352 0
81 348 350 -352 0
-348 352 0
-348 -350 0
-81 -348 -349 0
349 747 757 758 0
-349 -747 0
-349 -758 0
-349 -757 0
350 -351 758 0
350 747 -757 -758 0
350 -747 -757 758 0
-350 -747 -758 0
-350 351 747 758 0
-350 351 757 0
-350 757 -758 0
351 691 -692 0
351 -691 692 693 0
-351 -691 -692 0
-351 692 -693 0
-351 691 692 0
352 -353 354 0
48 352 354 774 0
-48 352 354 -774 0
-352 -354 0
-48 -352 353 774 0
48 -352 353 -774 0
353 604 605 -638 0
-353 638 0
-353 -605 0
-353 -604 0
354 -356 -749 0
-268 354 -355 -749 0
-354 749 0
268 -354 356 0
-354 355 356 0
355 -735 748 0
-355 735 0
-355 -748 0
356 598 599 633 634 0
356 598 -599 633 -634 0
-356 -633 0
-356 -599 634 0
-356 -598 0
-356 599 -634 0
357 358 -359 360 0
80 357 -359 360 0
-357 359 0
-357 -360 0
-80 -357 -358 0
16 82 358 0
-16 -358 0
-82 -358 0
349 359 768 0
-94 358 359 0
-94 349 359 0
358 359 768 0
94 -359 -768 0
-349 -358 -359 0
-84 360 772 -775 0
84 -360 0
-360 775 0
-360 -772 0
361 -362 -390 -411 -430 0
-361 430 0
-361 362 0
-361 411 0
-361 390 0
362 -363 -370 -377 -384 0
-362 384 0
-362 363 0
-362 377 0
-362 370 0
363 364 366 368 369 0
-363 -369 0
-363 -368 0
-363 -364 0
-363 -366 0
364 365 594 659 783 0
-364 -365 0
-364 -783 0
-364 -594 0
-364 -659 0
365 595 -660 0
365 -595 660 0
-365 -595 -660 0
-365 595 660 0
366 -367 764 765 0
366 -367 764 -766 0
-366 -764 0
-366 367 0
-366 -765 766 0
11 367 -612 0
11 367 -613 0
-11 -367 0
-367 612 613 0
-209 368 618 -630 -695 0
-368 -618 0
209 -368 0
-368 695 0
-368 630 0
-142 369 -636 -669 -701 0
142 -369 0
-369 636 0
-369 701 0
-369 669 0
370 371 -372 375 0
370 -372 375 376 0
-370 372 0
-370 -375 0
-370 -371 -376 0
371 -595 -660 0
-371 595 0
-371 660 0
372 374 697 0
372 373 374 0
372 374 632 0
-372 -374 0
-372 -373 -632 -697 0
373 631 696 776 0
-373 -631 0
-373 -776 0
-373 -696 0
374 629 -775 776 0
100 374 -775 776 0
-374 775 0
-374 -776 0
-100 -374 -629 0
-353 375 -702 774 0
-375 702 0
-375 -774 0
353 -375 0
376 -594 -659 783 0
-376 594 0
-376 659 0
-376 -783 0
377 378 379 -381 0
377 379 -381 -801 0
-377 381 0
-377 -379 0
-377 -378 801 0
378 -624 665 0
378 -600 689 0
378 -600 -624 0
378 665 689 0
-378 624 -689 0
-378 600 -665 0
379 -380 -630 -683 -695 0
-379 380 0
-379 630 0
-379 695 0
-379 683 0
380 -618 755 0
-380 618 0
-380 -755 0
381 382 762 0
381 382 -675 0
-49 381 382 0
-381 -382 0
49 -381 675 -762 0
382 -383 583 616 681 0
-382 383 0
-382 -681 0
-382 -583 0
-382 -616 0
383 648 744 0
-383 -648 0
-383 -744 0
-378 384 -385 389 0
384 -385 389 801 0
-384 385 0
-384 -389 0
378 -384 -801 0
385 388 -793 0
385 386 387 0
385 386 388 0
385 387 -793 0
-385 -386 793 0
-385 -387 -388 0
386 -614 654 0
386 -589 679 0
386 -589 -614 0
386 654 679 0
-386 614 -679 0
-386 589 -654 0
387 -619 -684 0
-387 619 0
-387 684 0
388 -584 -649 753 0
-388 584 0
-388 649 0
-388 -753 0
-380 389 630 -683 695 0
-389 683 0
-389 -695 0
-389 -630 0
380 -389 0
390 -391 -401 -403 -405 0
-390 405 0
-390 391 0
-390 403 0
-390 401 0
391 -392 395 396 -398 0
-391 398 0
-391 -396 0
-391 392 0
-391 -395 0
392 394 770 0
392 393 394 0
-392 -394 0
-392 -393 -770 0
393 665 -666 0
393 601 665 0
-393 -665 0
-393 -601 666 0
394 692 693 -740 0
394 -691 -693 740 0
-394 693 740 0
-394 -693 -740 0
-394 -692 693 0
-394 691 -693 0
115 395 607 672 743 0
-115 -395 0
-395 -743 0
-395 -607 0
-395 -672 0
396 -397 -583 616 681 0
-396 397 0
-396 -681 0
-396 583 0
-396 -616 0
397 -648 744 0
-397 648 0
-397 -744 0
236 398 399 -400 0
49 398 399 -400 0
-398 400 0
-398 -399 0
-49 -236 -398 0
-353 399 702 -774 0
353 -399 0
-399 774 0
-399 -702 0
400 -777 -779 0
400 777 779 0
27 400 0
400 -778 -779 0
-27 -400 -777 779 0
-27 -400 777 778 -779 0
401 -764 0
401 402 0
401 -765 766 0
-401 -402 764 765 0
-401 -402 764 -766 0
402 612 613 677 678 0
-402 -678 0
-402 -677 0
-402 -612 0
-402 -613 0
403 404 -776 0
-62 403 404 0
403 404 775 0
-403 -404 0
62 -403 -775 776 0
68 -134 404 0
-134 404 640 0
134 -404 0
-68 -404 -640 0
266 405 406 -408 0
405 406 -408 795 0
-405 408 0
-405 -406 0
-266 -405 -795 0
-41 406 -407 751 -757 0
-406 -751 0
-406 407 0
41 -406 0
-406 757 0
407 735 756 0
-407 -735 0
-407 -756 0
408 409 -684 0
408 409 410 0
408 409 -619 0
-408 -409 0
-408 -410 619 684 0
-397 409 -583 -616 -681 0
397 -409 0
-409 583 0
-409 681 0
-409 616 0
410 584 649 753 0
-410 -584 0
-410 -753 0
-410 -649 0
411 -412 -421 -426 -429 0
-411 429 0
-411 412 0
-411 426 0
-411 421 0
412 -413 -416 -419 -420 0
-412 420 0
-412 413 0
-412 419 0
-412 416 0
376 388 413 0
413 414 415 0
376 413 415 0
388 413 414 0
-376 -413 -414 0
-388 -413 -415 0
414 595 660 0
-414 -595 0
-414 -660 0
415 619 684 0
-415 -619 0
-415 -684 0
-129 416 417 0
416 417 736 0
-416 -417 0
129 -416 -736 0
-41 417 -418 751 -757 0
-417 -751 0
-417 418 0
41 -417 0
-417 757 0
418 -735 -756 0
-418 735 0
-418 756 0
419 751 795 0
-41 -265 419 0
-265 419 751 0
-41 419 795 0
41 -419 -751 0
265 -419 -795 0
387 420 787 0
-342 410 420 0
-342 387 420 0
410 420 787 0
342 -420 -787 0
-387 -410 -420 0
421 -422 424 786 0
421 -422 424 -425 0
-421 422 0
-421 -424 0
-421 425 -786 0
55 422 423 0
422 423 -638 0
422 423 -722 0
-422 -423 0
-55 -422 638 722 0
423 -581 -687 -779 0
423 -581 646 687 779 0
-423 -646 687 0
-423 -687 779 0
-423 581 0
-423 687 -779 0
424 -696 698 780 0
424 696 697 -698 780 0
-424 -696 -698 0
-424 696 698 0
-424 -780 0
-424 -697 -698 0
290 425 -682 0
290 425 617 0
-290 -425 0
-425 -617 682 0
426 427 -765 0
-196 426 428 0
426 427 428 0
-196 426 -765 0
196 -426 -427 0
-426 -428 765 0
427 -587 589 0
427 -588 589 0
-427 -589 0
-427 587 588 0
428 -623 -624 0
428 -623 -625 0
-428 623 0
-428 624 625 0
429 722 783 0
-55 365 429 0
-55 429 783 0
365 429 722 0
55 -429 -722 0
-365 -429 -783 0
430 -431 -437 -439 -441 0
-430 441 0
-430 431 0
-430 439 0
-430 437 0
431 432 -434 796 0
431 432 -433 -434 0
-431 434 0
-431 -432 0
-431 433 -796 0
212 432 600 633 -746 0
-432 -600 0
-212 -432 0
-432 746 0
-432 -633 0
433 -580 -645 0
433 580 645 0
-433 580 -645 0
-433 -580 645 0
44 434 738 0
434 -435 436 0
44 434 -435 0
434 436 738 0
-434 435 -738 0
-44 -434 -436 0
435 -739 -740 0
435 739 740 0
-435 739 -740 0
-435 -739 740 0
436 -663 741 0
-436 663 0
-436 -741 0
437 -754 0
437 585 -650 0
437 438 0
437 -585 650 0
-437 -438 585 650 754 0
-437 -438 -585 -650 754 0
438 -606 -671 0
438 606 671 0
-438 606 -671 0
-438 -606 671 0
439 440 787 0
439 440 -786 0
425 439 440 0
-439 -440 0
-425 -439 786 -787 0
-383 440 583 -616 -681 0
-440 -583 0
383 -440 0
-440 681 0
-440 616 0
441 -442 444 445 -446 0
-441 446 0
-441 -445 0
-441 442 0
-441 -444 0
442 443 590 0
442 443 -588 -714 0
442 443 588 714 0
-442 -443 0
-442 588 -590 -714 0
-442 -588 -590 714 0
443 -635 -700 -733 0
443 635 700 -733 0
-443 733 0
-443 -635 700 0
-443 635 -700 0
-436 444 -657 0
444 592 -657 -742 0
-444 657 0
436 -444 -592 0
436 -444 742 0
445 -588 -589 -718 0
445 588 589 590 -718 0
-445 588 -589 0
-445 -588 589 0
-445 718 0
-445 589 -590 0
446 447 -449 723 0
-62 446 447 -449 0
-446 449 0
-446 -447 0
62 -446 -723 0
447 -448 587 718 0
-447 448 0
-447 -718 0
-447 -587 0
448 588 -589 0
448 588 -590 0
-448 -588 0
-448 589 590 0
449 450 581 0
449 450 -694 -729 0
449 450 694 729 0
-449 -450 0
-449 -581 694 -729 0
-449 -581 -694 729 0
450 -451 592 657 742 0
-450 451 0
-450 -742 0
-450 -592 0
-450 -657 0
451 -598 -663 0
-451 598 0
-451 663 0
452 -453 -459 -470 -485 0
-452 485 0
-452 453 0
-452 470 0
-452 459 0
453 -454 458 734 0
453 -454 -457 458 0
-453 454 0
-453 -458 0
-453 457 -734 0
-81 454 455 0
-358 454 455 0
454 455 757 0
-454 -455 0
81 358 -454 -757 0
455 456 -716 0
-455 716 0
-455 -456 0
-24 456 -686 0
24 43 456 0
-24 -456 686 0
24 -43 -456 0
-18 -244 457 0
18 244 457 0
18 -244 -457 0
-18 244 -457 0
62 -456 458 716 0
456 -458 0
-62 -458 0
-458 -716 0
459 -460 464 469 0
459 -460 464 468 0
-459 460 0
-459 -464 0
-459 -468 -469 0
460 462 746 0
460 462 -745 0
460 -461 462 0
-460 -462 0
-460 461 745 -746 0
82 461 -585 0
-82 461 585 -586 0
-82 -461 -585 0
82 -461 585 0
-82 -461 586 0
24 462 -463 -580 0
-24 462 -463 726 0
-462 463 0
-24 -462 -726 0
24 -462 580 0
463 -645 -725 0
-463 645 0
-463 725 0
464 -465 589 0
464 466 -588 589 0
-464 -589 0
-464 465 -466 0
-464 465 588 0
-320 465 590 0
465 590 591 -713 0
-465 -590 0
320 -465 -591 0
320 -465 713 0
466 467 -587 0
466 467 -712 -718 0
-466 -467 0
-466 587 718 0
-466 587 712 0
467 -591 714 0
-467 591 0
-467 -714 0
-224 468 647 0
468 582 647 0
-468 -647 0
224 -468 -582 0
-335 469 727 -728 0
335 -469 0
-469 728 0
-469 -727 0
470 -471 -475 481 -484 0
470 -471 -475 -481 484 0
-470 475 0
-470 481 484 0
-470 471 0
-470 -481 -484 0
471 -473 727 0
471 472 -473 647 0
471 -472 -473 -647 0
-471 473 0
-471 -472 647 -727 0
-471 472 -647 -727 0
224 472 -582 0
-472 582 0
-224 -472 0
136 461 473 0
473 474 745 0
461 473 474 0
136 473 745 0
-461 -473 -745 0
-136 -473 -474 0
25 -66 474 -580 0
-474 580 0
-25 -474 0
66 -474 0
469 475 477 0
475 476 477 0
-475 -477 0
-469 -475 -476 0
224 476 -582 -647 0
-476 582 0
-476 647 0
-224 -476 0
-457 477 478 734 737 0
-477 -734 0
-477 -478 0
457 -477 0
-477 -737 0
478 -479 -480 -735 -736 0
-478 480 0
-478 735 0
-478 479 0
-478 736 0
479 598 633 0
-479 -598 0
-479 -633 0
480 -599 -634 0
-480 599 0
-480 634 0
481 -482 -609 0
481 482 -583 0
-481 482 583 0
-481 -482 609 0
206 482 -483 -592 0
206 482 -483 -593 0
-482 483 0
-206 -482 0
-482 592 593 0
483 -584 -621 0
-483 584 0
-483 621 0
484 -674 -750 0
484 674 750 0
-484 674 -750 0
-484 -674 750 0
485 -486 -538 -550 -556 0
-485 556 0
-485 486 0
-485 550 0
-485 538 0
486 -487 -516 -529 -533 0
-486 533 0
-486 487 0
-486 529 0
-486 516 0
487 -488 -505 -511 -513 0
-487 513 0
-487 488 0
-487 511 0
-487 505 0
488 -489 492 494 -497 0
-488 497 0
-488 -494 0
-488 489 0
-488 -492 0
489 490 -721 0
489 490 -491 0
489 490 -703 0
-489 -490 0
-489 491 703 721 0
-115 490 -743 0
490 -607 672 -743 0
-490 743 0
115 -490 -672 0
115 -490 607 0
-100 491 704 0
100 491 -704 0
-100 -491 -704 0
100 -491 704 0
492 -493 -589 590 0
492 -493 588 589 -590 0
-492 -588 -590 0
-492 589 590 0
-492 493 0
-492 -589 -590 0
493 587 -712 0
-493 -587 0
-493 712 0
494 -496 590 0
153 494 -495 590 0
-494 -590 0
-153 -494 496 0
-494 495 496 0
495 -588 -714 0
-495 588 0
-495 714 0
496 587 589 -591 714 0
-496 -587 0
-496 -714 0
-496 591 0
-496 -589 0
497 498 499 -502 0
497 499 -502 -747 0
-497 502 0
-497 -499 0
-497 -498 747 0
498 626 -627 0
498 -626 627 628 0
-498 -626 -627 0
-498 627 -628 0
-498 626 627 0
-224 499 500 501 732 0
-499 -732 0
-499 -501 0
224 -499 0
-499 -500 0
500 -582 686 0
-500 582 0
-500 -686 0
-43 501 582 0
-501 -582 0
43 -501 0
502 503 -504 0
502 503 744 0
-502 -503 0
-502 504 -744 0
189 229 503 798 -799 0
-503 799 0
-229 -503 0
-503 -798 0
-189 -503 0
504 -583 616 -648 681 0
504 583 -616 648 -681 0
504 583 616 648 681 0
504 -583 -616 -648 -681 0
-504 -583 648 0
-504 583 -648 0
-504 616 -681 0
-504 -616 681 0
505 506 -507 747 0
-498 505 506 -507 0
-505 507 0
-505 -506 0
498 -505 -747 0
24 506 -580 645 725 0
-24 -506 0
-506 -725 0
-506 580 0
-506 -645 0
507 508 509 0
507 509 -715 0
507 509 -716 0
-507 -509 0
-507 -508 715 716 0
-227 508 708 0
-508 -708 0
227 -508 0
509 -510 -742 0
509 -592 657 -742 0
-509 742 0
-509 510 -657 0
-509 510 592 0
510 598 -663 0
510 -598 663 0
-510 -598 -663 0
-510 598 663 0
-25 511 512 0
-61 511 512 0
511 512 720 0
-511 -512 0
25 61 -511 -720 0
-25 62 512 720 -721 0
-512 -720 0
-62 -512 0
25 -512 0
-512 721 0
285 513 514 0
513 514 -799 0
-175 513 514 0
-513 -514 0
175 -285 -513 799 0
-312 514 -515 0
-312 514 -730 731 0
312 -514 0
-514 515 -731 0
-514 515 730 0
515 775 -777 0
-515 -775 0
-515 777 0
516 -517 -523 526 528 0
-516 523 0
-516 -528 0
-516 517 0
-516 -526 0
517 518 -519 759 0
-250 517 518 -519 0
-517 519 0
-517 -518 0
250 -517 -759 0
356 518 598 749 0
356 518 633 749 0
-356 -518 0
-518 -749 0
-518 -598 -633 0
519 520 -521 0
519 520 790 0
-519 -520 0
-519 521 -790 0
325 520 -789 0
520 613 -678 -789 0
520 -613 678 -789 0
-520 789 0
-325 -520 -613 -678 0
-325 -520 613 678 0
521 -522 -609 -674 0
521 -522 609 674 0
-521 522 0
-521 -609 674 0
-521 609 -674 0
522 -627 -662 0
522 597 692 0
522 597 -627 0
522 -662 692 0
-522 -597 662 0
-522 627 -692 0
523 524 -525 0
523 669 735 0
523 -525 669 0
523 524 735 0
-523 -524 -669 0
-523 525 -735 0
206 207 524 760 0
-524 -760 0
-207 -524 0
-206 -524 0
525 623 -624 0
525 -623 624 625 0
-525 -623 -624 0
-525 624 -625 0
-525 623 624 0
526 527 -755 0
526 630 -695 -755 0
526 -630 695 -755 0
-526 755 0
-526 -527 -630 -695 0
-526 -527 630 695 0
527 -618 -683 0
527 618 683 0
-527 618 -683 0
-527 -618 683 0
204 528 -752 0
528 -604 669 -752 0
-528 752 0
-204 -528 604 0
-204 -528 -669 0
501 529 530 -531 0
529 530 -531 732 0
-529 531 0
-529 -530 0
-501 -529 -732 0
-62 -100 530 -686 715 0
100 -530 0
-530 686 0
62 -530 0
-530 -715 0
525 531 657 0
531 532 -735 0
531 657 -735 0
525 531 532 0
-531 -532 -657 0
-525 -531 735 0
-56 532 741 0
-532 -741 0
56 -532 0
533 534 -536 788 0
-275 533 534 -536 0
-533 536 0
-533 -534 0
275 -533 -788 0
534 -535 -791 0
534 633 -698 -791 0
534 -633 698 -791 0
-534 791 0
-534 535 633 698 0
-534 535 -633 -698 0
535 634 -699 0
535 -634 699 0
-535 -634 -699 0
-535 634 699 0
536 537 733 0
536 537 -700 0
67 536 537 0
-536 -537 0
-67 -536 700 -733 0
-324 537 613 678 0
324 -537 0
-537 -678 0
-537 -613 0
538 539 542 -543 -545 0
-538 -539 0
-538 545 0
-538 543 0
-538 -542 0
-435 539 -540 738 -741 0
-539 -738 0
-539 540 0
435 -539 0
-539 741 0
-265 540 -541 -642 -742 0
265 -540 0
-540 642 0
-540 541 0
-540 742 0
541 -743 -744 0
-541 743 0
-541 744 0
-433 542 631 696 796 0
-433 542 -631 -696 796 0
-542 -796 0
-542 631 -696 0
433 -542 0
-542 -631 696 0
46 543 544 0
-24 543 544 0
543 544 717 0
-543 -544 0
24 -46 -543 -717 0
-224 -508 544 0
224 -544 0
508 -544 0
-540 545 -546 549 0
545 -546 549 738 0
-545 546 0
-545 -549 0
540 -545 -738 0
478 546 -547 0
546 734 785 0
546 -547 734 0
478 546 785 0
-478 -546 -734 0
-546 547 -785 0
547 -548 -623 -688 0
547 -548 623 688 0
-547 548 0
-547 -623 688 0
-547 623 -688 0
548 -590 -673 0
548 608 655 0
548 655 -673 0
548 -590 608 0
-548 -608 673 0
-548 590 -655 0
288 549 -784 0
549 603 -668 -784 0
549 -603 668 -784 0
-549 784 0
-288 -549 -603 -668 0
-288 -549 603 668 0
550 -551 725 0
550 -551 719 0
-474 550 -551 0
-550 551 0
474 -550 -719 -725 0
551 552 -555 782 0
-283 551 552 -555 0
-551 555 0
-551 -552 0
283 -551 -782 0
552 553 -780 0
552 -554 699 -780 0
-552 780 0
-552 -553 -699 0
-552 -553 554 0
553 -696 698 0
553 696 697 0
-553 696 -697 0
-553 -696 -698 0
554 696 698 0
-554 -696 0
-554 -698 0
273 555 -785 0
547 555 -761 0
555 -761 -785 0
273 547 555 0
-547 -555 785 0
-273 -555 761 0
556 -557 -563 -569 -574 0
-556 574 0
-556 557 0
-556 569 0
-556 563 0
557 558 559 -560 0
557 559 -560 669 0
-557 560 0
-557 -559 0
-557 -558 -669 0
-206 -207 558 760 0
207 -558 0
206 -558 0
-558 -760 0
-44 -532 559 0
44 -559 0
532 -559 0
560 561 562 0
560 562 -769 0
246 560 562 0
-560 -562 0
-246 -560 -561 769 0
561 770 -771 0
-561 -770 0
-561 771 0
-214 562 -794 0
562 579 -644 -794 0
562 -579 644 -794 0
-562 794 0
214 -562 579 644 0
214 -562 -579 -644 0
563 566 -567 781 0
563 -564 566 -567 0
-563 567 0
-563 -566 0
-563 564 -781 0
564 -565 701 702 705 0
-564 565 0
-564 -705 0
-564 -701 0
-564 -702 0
565 695 700 703 704 0
-565 -704 0
-565 -703 0
-565 -695 0
-565 -700 0
-27 566 -728 -729 0
-27 566 728 729 -730 0
-566 728 -729 0
-566 -728 729 0
27 -566 0
-566 728 730 0
62 567 568 0
567 568 -723 0
270 567 568 0
-567 -568 0
-62 -270 -567 723 0
222 -564 568 781 0
564 -568 0
-222 -568 0
-568 -781 0
569 -570 573 -790 0
521 569 -570 573 0
-569 570 0
-569 -573 0
-521 -569 790 0
570 571 -572 0
570 571 753 0
-570 -571 0
-570 572 -753 0
438 571 -754 0
571 -585 650 -754 0
-571 754 0
-438 -571 585 0
-438 -571 -650 0
572 -584 619 -649 684 0
572 584 -619 649 -684 0
572 584 619 649 684 0
572 -584 -619 -649 -684 0
-572 -584 649 0
-572 584 -649 0
-572 619 -684 0
-572 -619 684 0
43 -62 100 573 715 0
-573 -715 0
-100 -573 0
62 -573 0
-43 -573 0
491 574 -575 577 0
574 -575 577 721 0
-574 575 0
-574 -577 0
-491 -574 -721 0
-351 575 576 0
575 576 758 0
-575 -576 0
351 -575 -758 0
576 631 -696 -776 0
576 -631 696 -776 0
-52 576 631 -776 0
-576 776 0
-576 -631 -696 0
52 -576 631 696 0
386 577 -793 0
577 578 792 -793 0
-577 793 0
-386 -577 -792 0
-386 -577 -578 0
578 628 -693 0
-578 -628 0
-578 693 0
1 -2 0
-1 2 0
804 0

